c A SAT instance generated from a 3-CNF formula that had 36 clauses and 9 variables
p cnf 9 36
-1 -3 -4 0
-2 -1 -5 0
4 2 6 0
1 2 3 0
-5 9 1 0
2 -4 -9 0
8 -1 3 0
-3 5 -4 0
-6 -9 -1 0
-9 -2 1 0
2 -1 -3 0
-4 7 2 0
7 -4 8 0
5 3 -7 0
-4 -5 -2 0
5 -9 -4 0
-7 -3 -2 0
1 2 -6 0
-1 5 9 0
2 -7 -6 0
-6 1 8 0
-6 -4 3 0
-9 -5 1 0
2 4 -1 0
7 2 -9 0
1 5 -3 0
6 1 -7 0
1 -4 3 0
-3 -6 -2 0
-8 -1 6 0
-2 -4 -3 0
5 1 -9 0
-2 -6 -7 0
-4 5 7 0
4 3 -1 0
-4 -8 -7 0
